sat
(:max-memory        19.93
 :memory            17.87
 :num-allocs        717605329
 :rlimit-count      5736095
 :sls-constraints   7531
 :sls-ddfw-flips    2825735.00
 :sls-ddfw-reinits  24
 :sls-ddfw-restarts 34
 :sls-ddfw-shifts   944090.00
 :sls-euf-conflict  7531
 :time              3.50
 :total-time        3.50)
